c_ccg/a.lp
\ Model Master problem
\ LP format - for model browsing. Use MPS format to capture full model detail.
Minimize
  0 X_7_6 + 0 X_6_8 + 0 X_7_8 + 0 X_6_10 + 0 X_7_10 + 0 X_6_14 + 0 X_7_14
   + 0 X_6_16 + 0 X_7_16 + 0 X_6_18 + 0 X_7_18 + 0 X_6_22 + 0 X_7_22
   + 0 X_6_24 + 0 X_7_24 + 0 X_6_28 + 0 X_7_28 + 0 X_6_30 + 0 X_7_30
   + theta
Subject To
 2b[0]: X_0_6 + X_0_8 + X_0_10 + X_0_14 + X_0_16 + X_0_18 + X_0_22 + X_0_24
   + X_0_28 + X_0_30 = 1
 2b[1]: X_1_6 + X_1_8 + X_1_10 + X_1_14 + X_1_16 + X_1_18 + X_1_22 + X_1_24
   + X_1_28 + X_1_30 = 1
 2b[2]: X_2_6 + X_2_8 + X_2_10 + X_2_14 + X_2_16 + X_2_18 + X_2_22 + X_2_24
   + X_2_28 + X_2_30 = 1
 2b[3]: X_3_6 + X_3_8 + X_3_10 + X_3_14 + X_3_16 + X_3_18 + X_3_22 + X_3_24
   + X_3_28 + X_3_30 = 1
 2c[4]: X_4_6 + X_4_8 + X_4_14 + X_4_16 + X_4_22 + X_4_28 = 1
 2c[5]: X_5_6 + X_5_8 + X_5_14 + X_5_16 + X_5_22 + X_5_28 = 1
 2d[7]: X_6_6 = 1
 2e[4,0,7]: X_4_6 + 10000 X_0_8 <= 10000
 2e[4,0,9]: X_4_8 + 10000 X_0_10 <= 10000
 2e[4,0,15]: X_4_14 + 10000 X_0_16 <= 10000
 2e[4,0,17]: X_4_16 + 10000 X_0_18 <= 10000
 2e[4,0,23]: X_4_22 + 10000 X_0_24 <= 10000
 2e[4,0,29]: X_4_28 + 10000 X_0_30 <= 10000
 2e[4,1,7]: X_4_6 + 10000 X_1_8 <= 10000
 2e[4,1,9]: X_4_8 + 10000 X_1_10 <= 10000
 2e[4,1,15]: X_4_14 + 10000 X_1_16 <= 10000
 2e[4,1,17]: X_4_16 + 10000 X_1_18 <= 10000
 2e[4,1,23]: X_4_22 + 10000 X_1_24 <= 10000
 2e[4,1,29]: X_4_28 + 10000 X_1_30 <= 10000
 2e[4,2,7]: X_4_6 + 10000 X_2_8 <= 10000
 2e[4,2,9]: X_4_8 + 10000 X_2_10 <= 10000
 2e[4,2,15]: X_4_14 + 10000 X_2_16 <= 10000
 2e[4,2,17]: X_4_16 + 10000 X_2_18 <= 10000
 2e[4,2,23]: X_4_22 + 10000 X_2_24 <= 10000
 2e[4,2,29]: X_4_28 + 10000 X_2_30 <= 10000
 2e[4,3,7]: X_4_6 + 10000 X_3_8 <= 10000
 2e[4,3,9]: X_4_8 + 10000 X_3_10 <= 10000
 2e[4,3,15]: X_4_14 + 10000 X_3_16 <= 10000
 2e[4,3,17]: X_4_16 + 10000 X_3_18 <= 10000
 2e[4,3,23]: X_4_22 + 10000 X_3_24 <= 10000
 2e[4,3,29]: X_4_28 + 10000 X_3_30 <= 10000
 2e[4,4,7]: X_4_6 + 10000 X_4_8 <= 10000
 2e[4,4,9]: X_4_8 + 10000 X_4_10 <= 10000
 2e[4,4,15]: X_4_14 + 10000 X_4_16 <= 10000
 2e[4,4,17]: X_4_16 + 10000 X_4_18 <= 10000
 2e[4,4,23]: X_4_22 + 10000 X_4_24 <= 10000
 2e[4,4,29]: X_4_28 + 10000 X_4_30 <= 10000
 2e[4,5,7]: X_4_6 + 10000 X_5_8 <= 10000
 2e[4,5,9]: X_4_8 + 10000 X_5_10 <= 10000
 2e[4,5,15]: X_4_14 + 10000 X_5_16 <= 10000
 2e[4,5,17]: X_4_16 + 10000 X_5_18 <= 10000
 2e[4,5,23]: X_4_22 + 10000 X_5_24 <= 10000
 2e[4,5,29]: X_4_28 + 10000 X_5_30 <= 10000
 2e[5,0,7]: X_5_6 + 10000 X_0_8 <= 10000
 2e[5,0,9]: X_5_8 + 10000 X_0_10 <= 10000
 2e[5,0,15]: X_5_14 + 10000 X_0_16 <= 10000
 2e[5,0,17]: X_5_16 + 10000 X_0_18 <= 10000
 2e[5,0,23]: X_5_22 + 10000 X_0_24 <= 10000
 2e[5,0,29]: X_5_28 + 10000 X_0_30 <= 10000
 2e[5,1,7]: X_5_6 + 10000 X_1_8 <= 10000
 2e[5,1,9]: X_5_8 + 10000 X_1_10 <= 10000
 2e[5,1,15]: X_5_14 + 10000 X_1_16 <= 10000
 2e[5,1,17]: X_5_16 + 10000 X_1_18 <= 10000
 2e[5,1,23]: X_5_22 + 10000 X_1_24 <= 10000
 2e[5,1,29]: X_5_28 + 10000 X_1_30 <= 10000
 2e[5,2,7]: X_5_6 + 10000 X_2_8 <= 10000
 2e[5,2,9]: X_5_8 + 10000 X_2_10 <= 10000
 2e[5,2,15]: X_5_14 + 10000 X_2_16 <= 10000
 2e[5,2,17]: X_5_16 + 10000 X_2_18 <= 10000
 2e[5,2,23]: X_5_22 + 10000 X_2_24 <= 10000
 2e[5,2,29]: X_5_28 + 10000 X_2_30 <= 10000
 2e[5,3,7]: X_5_6 + 10000 X_3_8 <= 10000
 2e[5,3,9]: X_5_8 + 10000 X_3_10 <= 10000
 2e[5,3,15]: X_5_14 + 10000 X_3_16 <= 10000
 2e[5,3,17]: X_5_16 + 10000 X_3_18 <= 10000
 2e[5,3,23]: X_5_22 + 10000 X_3_24 <= 10000
 2e[5,3,29]: X_5_28 + 10000 X_3_30 <= 10000
 2e[5,4,7]: X_5_6 + 10000 X_4_8 <= 10000
 2e[5,4,9]: X_5_8 + 10000 X_4_10 <= 10000
 2e[5,4,15]: X_5_14 + 10000 X_4_16 <= 10000
 2e[5,4,17]: X_5_16 + 10000 X_4_18 <= 10000
 2e[5,4,23]: X_5_22 + 10000 X_4_24 <= 10000
 2e[5,4,29]: X_5_28 + 10000 X_4_30 <= 10000
 2e[5,5,7]: X_5_6 + 10000 X_5_8 <= 10000
 2e[5,5,9]: X_5_8 + 10000 X_5_10 <= 10000
 2e[5,5,15]: X_5_14 + 10000 X_5_16 <= 10000
 2e[5,5,17]: X_5_16 + 10000 X_5_18 <= 10000
 2e[5,5,23]: X_5_22 + 10000 X_5_24 <= 10000
 2e[5,5,29]: X_5_28 + 10000 X_5_30 <= 10000
 2f[7]: X_0_6 + X_1_6 + X_2_6 + X_3_6 + X_4_6 + X_5_6 <= 2
 2f[9]: X_0_8 + X_1_8 + X_2_8 + X_3_8 + X_4_8 + X_5_8 <= 2
 2f[11]: X_0_10 + X_1_10 + X_2_10 + X_3_10 + X_4_10 + X_5_10 <= 2
 2f[15]: X_0_14 + X_1_14 + X_2_14 + X_3_14 + X_4_14 + X_5_14 <= 2
 2f[17]: X_0_16 + X_1_16 + X_2_16 + X_3_16 + X_4_16 + X_5_16 <= 2
 2f[19]: X_0_18 + X_1_18 + X_2_18 + X_3_18 + X_4_18 + X_5_18 <= 2
 2f[23]: X_0_22 + X_1_22 + X_2_22 + X_3_22 + X_4_22 + X_5_22 <= 2
 2f[25]: X_0_24 + X_1_24 + X_2_24 + X_3_24 + X_4_24 + X_5_24 <= 2
 2f[29]: X_0_28 + X_1_28 + X_2_28 + X_3_28 + X_4_28 + X_5_28 <= 2
 2f[31]: X_0_30 + X_1_30 + X_2_30 + X_3_30 + X_4_30 + X_5_30 <= 2
 2g[7,0,4]: X_0_6 + X_4_6 <= 1
 2g[7,0,5]: X_0_6 + X_5_6 <= 1
 2g[7,1,4]: X_1_6 + X_4_6 <= 1
 2g[7,1,5]: X_1_6 + X_5_6 <= 1
 2g[7,2,4]: X_2_6 + X_4_6 <= 1
 2g[7,2,5]: X_2_6 + X_5_6 <= 1
 2g[7,3,4]: X_3_6 + X_4_6 <= 1
 2g[7,3,5]: X_3_6 + X_5_6 <= 1
 2g[9,0,4]: X_0_8 + X_4_8 <= 1
 2g[9,0,5]: X_0_8 + X_5_8 <= 1
 2g[9,1,4]: X_1_8 + X_4_8 <= 1
 2g[9,1,5]: X_1_8 + X_5_8 <= 1
 2g[9,2,4]: X_2_8 + X_4_8 <= 1
 2g[9,2,5]: X_2_8 + X_5_8 <= 1
 2g[9,3,4]: X_3_8 + X_4_8 <= 1
 2g[9,3,5]: X_3_8 + X_5_8 <= 1
 2g[11,0,4]: X_0_10 + X_4_10 <= 1
 2g[11,0,5]: X_0_10 + X_5_10 <= 1
 2g[11,1,4]: X_1_10 + X_4_10 <= 1
 2g[11,1,5]: X_1_10 + X_5_10 <= 1
 2g[11,2,4]: X_2_10 + X_4_10 <= 1
 2g[11,2,5]: X_2_10 + X_5_10 <= 1
 2g[11,3,4]: X_3_10 + X_4_10 <= 1
 2g[11,3,5]: X_3_10 + X_5_10 <= 1
 2g[15,0,4]: X_0_14 + X_4_14 <= 1
 2g[15,0,5]: X_0_14 + X_5_14 <= 1
 2g[15,1,4]: X_1_14 + X_4_14 <= 1
 2g[15,1,5]: X_1_14 + X_5_14 <= 1
 2g[15,2,4]: X_2_14 + X_4_14 <= 1
 2g[15,2,5]: X_2_14 + X_5_14 <= 1
 2g[15,3,4]: X_3_14 + X_4_14 <= 1
 2g[15,3,5]: X_3_14 + X_5_14 <= 1
 2g[17,0,4]: X_0_16 + X_4_16 <= 1
 2g[17,0,5]: X_0_16 + X_5_16 <= 1
 2g[17,1,4]: X_1_16 + X_4_16 <= 1
 2g[17,1,5]: X_1_16 + X_5_16 <= 1
 2g[17,2,4]: X_2_16 + X_4_16 <= 1
 2g[17,2,5]: X_2_16 + X_5_16 <= 1
 2g[17,3,4]: X_3_16 + X_4_16 <= 1
 2g[17,3,5]: X_3_16 + X_5_16 <= 1
 2g[19,0,4]: X_0_18 + X_4_18 <= 1
 2g[19,0,5]: X_0_18 + X_5_18 <= 1
 2g[19,1,4]: X_1_18 + X_4_18 <= 1
 2g[19,1,5]: X_1_18 + X_5_18 <= 1
 2g[19,2,4]: X_2_18 + X_4_18 <= 1
 2g[19,2,5]: X_2_18 + X_5_18 <= 1
 2g[19,3,4]: X_3_18 + X_4_18 <= 1
 2g[19,3,5]: X_3_18 + X_5_18 <= 1
 2g[23,0,4]: X_0_22 + X_4_22 <= 1
 2g[23,0,5]: X_0_22 + X_5_22 <= 1
 2g[23,1,4]: X_1_22 + X_4_22 <= 1
 2g[23,1,5]: X_1_22 + X_5_22 <= 1
 2g[23,2,4]: X_2_22 + X_4_22 <= 1
 2g[23,2,5]: X_2_22 + X_5_22 <= 1
 2g[23,3,4]: X_3_22 + X_4_22 <= 1
 2g[23,3,5]: X_3_22 + X_5_22 <= 1
 2g[25,0,4]: X_0_24 + X_4_24 <= 1
 2g[25,0,5]: X_0_24 + X_5_24 <= 1
 2g[25,1,4]: X_1_24 + X_4_24 <= 1
 2g[25,1,5]: X_1_24 + X_5_24 <= 1
 2g[25,2,4]: X_2_24 + X_4_24 <= 1
 2g[25,2,5]: X_2_24 + X_5_24 <= 1
 2g[25,3,4]: X_3_24 + X_4_24 <= 1
 2g[25,3,5]: X_3_24 + X_5_24 <= 1
 2g[29,0,4]: X_0_28 + X_4_28 <= 1
 2g[29,0,5]: X_0_28 + X_5_28 <= 1
 2g[29,1,4]: X_1_28 + X_4_28 <= 1
 2g[29,1,5]: X_1_28 + X_5_28 <= 1
 2g[29,2,4]: X_2_28 + X_4_28 <= 1
 2g[29,2,5]: X_2_28 + X_5_28 <= 1
 2g[29,3,4]: X_3_28 + X_4_28 <= 1
 2g[29,3,5]: X_3_28 + X_5_28 <= 1
 2g[31,0,4]: X_0_30 + X_4_30 <= 1
 2g[31,0,5]: X_0_30 + X_5_30 <= 1
 2g[31,1,4]: X_1_30 + X_4_30 <= 1
 2g[31,1,5]: X_1_30 + X_5_30 <= 1
 2g[31,2,4]: X_2_30 + X_4_30 <= 1
 2g[31,2,5]: X_2_30 + X_5_30 <= 1
 2g[31,3,4]: X_3_30 + X_4_30 <= 1
 2g[31,3,5]: X_3_30 + X_5_30 <= 1
 2h[7]: 12 X_0_6 + 3 X_1_6 + 12 X_2_6 + 4 X_3_6 + 3 X_4_6 + 3 X_5_6 <= 12
 2h[9]: 12 X_0_8 + 3 X_1_8 + 12 X_2_8 + 4 X_3_8 + 3 X_4_8 + 3 X_5_8 <= 12
 2h[11]: 12 X_0_10 + 3 X_1_10 + 12 X_2_10 + 4 X_3_10 + 3 X_4_10 + 3 X_5_10
   <= 12
 2h[15]: 12 X_0_14 + 3 X_1_14 + 12 X_2_14 + 4 X_3_14 + 3 X_4_14 + 3 X_5_14
   <= 12
 2h[17]: 12 X_0_16 + 3 X_1_16 + 12 X_2_16 + 4 X_3_16 + 3 X_4_16 + 3 X_5_16
   <= 12
 2h[19]: 12 X_0_18 + 3 X_1_18 + 12 X_2_18 + 4 X_3_18 + 3 X_4_18 + 3 X_5_18
   <= 12
 2h[23]: 12 X_0_22 + 3 X_1_22 + 12 X_2_22 + 4 X_3_22 + 3 X_4_22 + 3 X_5_22
   <= 12
 2h[25]: 12 X_0_24 + 3 X_1_24 + 12 X_2_24 + 4 X_3_24 + 3 X_4_24 + 3 X_5_24
   <= 12
 2h[29]: 12 X_0_28 + 3 X_1_28 + 12 X_2_28 + 4 X_3_28 + 3 X_4_28 + 3 X_5_28
   <= 12
 2h[31]: 12 X_0_30 + 3 X_1_30 + 12 X_2_30 + 4 X_3_30 + 3 X_4_30 + 3 X_5_30
   <= 12
 AA[0,7,0]: - 7 X_0_6 + AA0 <= 0
 AA[0,7,1]: - 7 X_1_6 + AA0 <= 0
 AA[0,7,2]: - 7 X_2_6 + AA0 <= 0
 AA[0,7,3]: - 7 X_3_6 + AA0 <= 0
 AA[0,7,4]: - 7 X_4_6 + AA0 <= 0
 AA[0,7,5]: - 7 X_5_6 + AA0 <= 0
 AA[0,9,0]: - 9 X_0_8 + AA0 <= 0
 AA[0,9,1]: - 9 X_1_8 + AA0 <= 0
 AA[0,9,2]: - 9 X_2_8 + AA0 <= 0
 AA[0,9,3]: - 9 X_3_8 + AA0 <= 0
 AA[0,9,4]: - 9 X_4_8 + AA0 <= 0
 AA[0,9,5]: - 9 X_5_8 + AA0 <= 0
 AA[0,11,0]: - 11 X_0_10 + AA0 <= 0
 AA[0,11,1]: - 11 X_1_10 + AA0 <= 0
 AA[0,11,2]: - 11 X_2_10 + AA0 <= 0
 AA[0,11,3]: - 11 X_3_10 + AA0 <= 0
 AA[0,11,4]: - 11 X_4_10 + AA0 <= 0
 AA[0,11,5]: - 11 X_5_10 + AA0 <= 0
 AA[0,15,0]: - 15 X_0_14 + AA0 <= 0
 AA[0,15,1]: - 15 X_1_14 + AA0 <= 0
 AA[0,15,2]: - 15 X_2_14 + AA0 <= 0
 AA[0,15,3]: - 15 X_3_14 + AA0 <= 0
 AA[0,15,4]: - 15 X_4_14 + AA0 <= 0
 AA[0,15,5]: - 15 X_5_14 + AA0 <= 0
 AA[0,17,0]: - 17 X_0_16 + AA0 <= 0
 AA[0,17,1]: - 17 X_1_16 + AA0 <= 0
 AA[0,17,2]: - 17 X_2_16 + AA0 <= 0
 AA[0,17,3]: - 17 X_3_16 + AA0 <= 0
 AA[0,17,4]: - 17 X_4_16 + AA0 <= 0
 AA[0,17,5]: - 17 X_5_16 + AA0 <= 0
 AA[0,19,0]: - 19 X_0_18 + AA0 <= 0
 AA[0,19,1]: - 19 X_1_18 + AA0 <= 0
 AA[0,19,2]: - 19 X_2_18 + AA0 <= 0
 AA[0,19,3]: - 19 X_3_18 + AA0 <= 0
 AA[0,19,4]: - 19 X_4_18 + AA0 <= 0
 AA[0,19,5]: - 19 X_5_18 + AA0 <= 0
 AA[0,23,0]: - 23 X_0_22 + AA0 <= 0
 AA[0,23,1]: - 23 X_1_22 + AA0 <= 0
 AA[0,23,2]: - 23 X_2_22 + AA0 <= 0
 AA[0,23,3]: - 23 X_3_22 + AA0 <= 0
 AA[0,23,4]: - 23 X_4_22 + AA0 <= 0
 AA[0,23,5]: - 23 X_5_22 + AA0 <= 0
 AA[0,25,0]: - 25 X_0_24 + AA0 <= 0
 AA[0,25,1]: - 25 X_1_24 + AA0 <= 0
 AA[0,25,2]: - 25 X_2_24 + AA0 <= 0
 AA[0,25,3]: - 25 X_3_24 + AA0 <= 0
 AA[0,25,4]: - 25 X_4_24 + AA0 <= 0
 AA[0,25,5]: - 25 X_5_24 + AA0 <= 0
 AA[0,29,0]: - 29 X_0_28 + AA0 <= 0
 AA[0,29,1]: - 29 X_1_28 + AA0 <= 0
 AA[0,29,2]: - 29 X_2_28 + AA0 <= 0
 AA[0,29,3]: - 29 X_3_28 + AA0 <= 0
 AA[0,29,4]: - 29 X_4_28 + AA0 <= 0
 AA[0,29,5]: - 29 X_5_28 + AA0 <= 0
 AA[0,31,0]: - 31 X_0_30 + AA0 <= 0
 AA[0,31,1]: - 31 X_1_30 + AA0 <= 0
 AA[0,31,2]: - 31 X_2_30 + AA0 <= 0
 AA[0,31,3]: - 31 X_3_30 + AA0 <= 0
 AA[0,31,4]: - 31 X_4_30 + AA0 <= 0
 AA[0,31,5]: - 31 X_5_30 + AA0 <= 0
 BB[0,7,0]: - 7 X_0_6 + BB0 >= 0
 BB[0,7,1]: - 7 X_1_6 + BB0 >= 0
 BB[0,7,2]: - 7 X_2_6 + BB0 >= 0
 BB[0,7,3]: - 7 X_3_6 + BB0 >= 0
 BB[0,7,4]: - 7 X_4_6 + BB0 >= 0
 BB[0,7,5]: - 7 X_5_6 + BB0 >= 0
 BB[0,9,0]: - 9 X_0_8 + BB0 >= 0
 BB[0,9,1]: - 9 X_1_8 + BB0 >= 0
 BB[0,9,2]: - 9 X_2_8 + BB0 >= 0
 BB[0,9,3]: - 9 X_3_8 + BB0 >= 0
 BB[0,9,4]: - 9 X_4_8 + BB0 >= 0
 BB[0,9,5]: - 9 X_5_8 + BB0 >= 0
 BB[0,11,0]: - 11 X_0_10 + BB0 >= 0
 BB[0,11,1]: - 11 X_1_10 + BB0 >= 0
 BB[0,11,2]: - 11 X_2_10 + BB0 >= 0
 BB[0,11,3]: - 11 X_3_10 + BB0 >= 0
 BB[0,11,4]: - 11 X_4_10 + BB0 >= 0
 BB[0,11,5]: - 11 X_5_10 + BB0 >= 0
 BB[0,15,0]: - 15 X_0_14 + BB0 >= 0
 BB[0,15,1]: - 15 X_1_14 + BB0 >= 0
 BB[0,15,2]: - 15 X_2_14 + BB0 >= 0
 BB[0,15,3]: - 15 X_3_14 + BB0 >= 0
 BB[0,15,4]: - 15 X_4_14 + BB0 >= 0
 BB[0,15,5]: - 15 X_5_14 + BB0 >= 0
 BB[0,17,0]: - 17 X_0_16 + BB0 >= 0
 BB[0,17,1]: - 17 X_1_16 + BB0 >= 0
 BB[0,17,2]: - 17 X_2_16 + BB0 >= 0
 BB[0,17,3]: - 17 X_3_16 + BB0 >= 0
 BB[0,17,4]: - 17 X_4_16 + BB0 >= 0
 BB[0,17,5]: - 17 X_5_16 + BB0 >= 0
 BB[0,19,0]: - 19 X_0_18 + BB0 >= 0
 BB[0,19,1]: - 19 X_1_18 + BB0 >= 0
 BB[0,19,2]: - 19 X_2_18 + BB0 >= 0
 BB[0,19,3]: - 19 X_3_18 + BB0 >= 0
 BB[0,19,4]: - 19 X_4_18 + BB0 >= 0
 BB[0,19,5]: - 19 X_5_18 + BB0 >= 0
 BB[0,23,0]: - 23 X_0_22 + BB0 >= 0
 BB[0,23,1]: - 23 X_1_22 + BB0 >= 0
 BB[0,23,2]: - 23 X_2_22 + BB0 >= 0
 BB[0,23,3]: - 23 X_3_22 + BB0 >= 0
 BB[0,23,4]: - 23 X_4_22 + BB0 >= 0
 BB[0,23,5]: - 23 X_5_22 + BB0 >= 0
 BB[0,25,0]: - 25 X_0_24 + BB0 >= 0
 BB[0,25,1]: - 25 X_1_24 + BB0 >= 0
 BB[0,25,2]: - 25 X_2_24 + BB0 >= 0
 BB[0,25,3]: - 25 X_3_24 + BB0 >= 0
 BB[0,25,4]: - 25 X_4_24 + BB0 >= 0
 BB[0,25,5]: - 25 X_5_24 + BB0 >= 0
 BB[0,29,0]: - 29 X_0_28 + BB0 >= 0
 BB[0,29,1]: - 29 X_1_28 + BB0 >= 0
 BB[0,29,2]: - 29 X_2_28 + BB0 >= 0
 BB[0,29,3]: - 29 X_3_28 + BB0 >= 0
 BB[0,29,4]: - 29 X_4_28 + BB0 >= 0
 BB[0,29,5]: - 29 X_5_28 + BB0 >= 0
 BB[0,31,0]: - 31 X_0_30 + BB0 >= 0
 BB[0,31,1]: - 31 X_1_30 + BB0 >= 0
 BB[0,31,2]: - 31 X_2_30 + BB0 >= 0
 BB[0,31,3]: - 31 X_3_30 + BB0 >= 0
 BB[0,31,4]: - 31 X_4_30 + BB0 >= 0
 BB[0,31,5]: - 31 X_5_30 + BB0 >= 0
 global_lb[0]: - 720 X_0_6 - 180 X_1_6 - 720 X_2_6 - 240 X_3_6 - 180 X_4_6
   - 180 X_5_6 - 720 X_0_8 - 180 X_1_8 - 720 X_2_8 - 240 X_3_8 - 180 X_4_8
   - 180 X_5_8 - 720 X_0_10 - 180 X_1_10 - 720 X_2_10 - 240 X_3_10
   - 180 X_4_10 - 180 X_5_10 - 720 X_0_14 - 180 X_1_14 - 720 X_2_14
   - 240 X_3_14 - 180 X_4_14 - 180 X_5_14 - 720 X_0_16 - 180 X_1_16
   - 720 X_2_16 - 240 X_3_16 - 180 X_4_16 - 180 X_5_16 - 720 X_0_18
   - 180 X_1_18 - 720 X_2_18 - 240 X_3_18 - 180 X_4_18 - 180 X_5_18
   - 720 X_0_22 - 180 X_1_22 - 720 X_2_22 - 240 X_3_22 - 180 X_4_22
   - 180 X_5_22 - 720 X_0_24 - 180 X_1_24 - 720 X_2_24 - 240 X_3_24
   - 180 X_4_24 - 180 X_5_24 - 720 X_0_28 - 180 X_1_28 - 720 X_2_28
   - 240 X_3_28 - 180 X_4_28 - 180 X_5_28 - 720 X_0_30 - 180 X_1_30
   - 720 X_2_30 - 240 X_3_30 - 180 X_4_30 - 180 X_5_30 + theta + 6 AA0
   - 6 BB0 >= 0
 A[0,7,0,0]: - 7 X_0_6 + A0_0 <= 0
 A[0,7,0,1]: - 7 X_1_6 + A0_0 <= 0
 A[0,7,1,4]: - 7 X_4_6 + A0_1 <= 0
 A[0,7,2,2]: - 7 X_2_6 + A0_2 <= 0
 A[0,7,2,3]: - 7 X_3_6 + A0_2 <= 0
 A[0,7,3,5]: - 7 X_5_6 + A0_3 <= 0
 A[0,9,0,0]: - 9 X_0_8 + A0_0 <= 0
 A[0,9,0,1]: - 9 X_1_8 + A0_0 <= 0
 A[0,9,1,4]: - 9 X_4_8 + A0_1 <= 0
 A[0,9,2,2]: - 9 X_2_8 + A0_2 <= 0
 A[0,9,2,3]: - 9 X_3_8 + A0_2 <= 0
 A[0,9,3,5]: - 9 X_5_8 + A0_3 <= 0
 A[0,11,0,0]: - 11 X_0_10 + A0_0 <= 0
 A[0,11,0,1]: - 11 X_1_10 + A0_0 <= 0
 A[0,11,1,4]: - 11 X_4_10 + A0_1 <= 0
 A[0,11,2,2]: - 11 X_2_10 + A0_2 <= 0
 A[0,11,2,3]: - 11 X_3_10 + A0_2 <= 0
 A[0,11,3,5]: - 11 X_5_10 + A0_3 <= 0
 A[0,15,0,0]: - 15 X_0_14 + A0_0 <= 0
 A[0,15,0,1]: - 15 X_1_14 + A0_0 <= 0
 A[0,15,1,4]: - 15 X_4_14 + A0_1 <= 0
 A[0,15,2,2]: - 15 X_2_14 + A0_2 <= 0
 A[0,15,2,3]: - 15 X_3_14 + A0_2 <= 0
 A[0,15,3,5]: - 15 X_5_14 + A0_3 <= 0
 A[0,17,0,0]: - 17 X_0_16 + A0_0 <= 0
 A[0,17,0,1]: - 17 X_1_16 + A0_0 <= 0
 A[0,17,1,4]: - 17 X_4_16 + A0_1 <= 0
 A[0,17,2,2]: - 17 X_2_16 + A0_2 <= 0
 A[0,17,2,3]: - 17 X_3_16 + A0_2 <= 0
 A[0,17,3,5]: - 17 X_5_16 + A0_3 <= 0
 A[0,19,0,0]: - 19 X_0_18 + A0_0 <= 0
 A[0,19,0,1]: - 19 X_1_18 + A0_0 <= 0
 A[0,19,1,4]: - 19 X_4_18 + A0_1 <= 0
 A[0,19,2,2]: - 19 X_2_18 + A0_2 <= 0
 A[0,19,2,3]: - 19 X_3_18 + A0_2 <= 0
 A[0,19,3,5]: - 19 X_5_18 + A0_3 <= 0
 A[0,23,0,0]: - 23 X_0_22 + A0_0 <= 0
 A[0,23,0,1]: - 23 X_1_22 + A0_0 <= 0
 A[0,23,1,4]: - 23 X_4_22 + A0_1 <= 0
 A[0,23,2,2]: - 23 X_2_22 + A0_2 <= 0
 A[0,23,2,3]: - 23 X_3_22 + A0_2 <= 0
 A[0,23,3,5]: - 23 X_5_22 + A0_3 <= 0
 A[0,25,0,0]: - 25 X_0_24 + A0_0 <= 0
 A[0,25,0,1]: - 25 X_1_24 + A0_0 <= 0
 A[0,25,1,4]: - 25 X_4_24 + A0_1 <= 0
 A[0,25,2,2]: - 25 X_2_24 + A0_2 <= 0
 A[0,25,2,3]: - 25 X_3_24 + A0_2 <= 0
 A[0,25,3,5]: - 25 X_5_24 + A0_3 <= 0
 A[0,29,0,0]: - 29 X_0_28 + A0_0 <= 0
 A[0,29,0,1]: - 29 X_1_28 + A0_0 <= 0
 A[0,29,1,4]: - 29 X_4_28 + A0_1 <= 0
 A[0,29,2,2]: - 29 X_2_28 + A0_2 <= 0
 A[0,29,2,3]: - 29 X_3_28 + A0_2 <= 0
 A[0,29,3,5]: - 29 X_5_28 + A0_3 <= 0
 A[0,31,0,0]: - 31 X_0_30 + A0_0 <= 0
 A[0,31,0,1]: - 31 X_1_30 + A0_0 <= 0
 A[0,31,1,4]: - 31 X_4_30 + A0_1 <= 0
 A[0,31,2,2]: - 31 X_2_30 + A0_2 <= 0
 A[0,31,2,3]: - 31 X_3_30 + A0_2 <= 0
 A[0,31,3,5]: - 31 X_5_30 + A0_3 <= 0
 B[0,7,0,0]: - 7 X_0_6 + B0_0 >= 0
 B[0,7,0,1]: - 7 X_1_6 + B0_0 >= 0
 B[0,7,1,4]: - 7 X_4_6 + B0_1 >= 0
 B[0,7,2,2]: - 7 X_2_6 + B0_2 >= 0
 B[0,7,2,3]: - 7 X_3_6 + B0_2 >= 0
 B[0,7,3,5]: - 7 X_5_6 + B0_3 >= 0
 B[0,9,0,0]: - 9 X_0_8 + B0_0 >= 0
 B[0,9,0,1]: - 9 X_1_8 + B0_0 >= 0
 B[0,9,1,4]: - 9 X_4_8 + B0_1 >= 0
 B[0,9,2,2]: - 9 X_2_8 + B0_2 >= 0
 B[0,9,2,3]: - 9 X_3_8 + B0_2 >= 0
 B[0,9,3,5]: - 9 X_5_8 + B0_3 >= 0
 B[0,11,0,0]: - 11 X_0_10 + B0_0 >= 0
 B[0,11,0,1]: - 11 X_1_10 + B0_0 >= 0
 B[0,11,1,4]: - 11 X_4_10 + B0_1 >= 0
 B[0,11,2,2]: - 11 X_2_10 + B0_2 >= 0
 B[0,11,2,3]: - 11 X_3_10 + B0_2 >= 0
 B[0,11,3,5]: - 11 X_5_10 + B0_3 >= 0
 B[0,15,0,0]: - 15 X_0_14 + B0_0 >= 0
 B[0,15,0,1]: - 15 X_1_14 + B0_0 >= 0
 B[0,15,1,4]: - 15 X_4_14 + B0_1 >= 0
 B[0,15,2,2]: - 15 X_2_14 + B0_2 >= 0
 B[0,15,2,3]: - 15 X_3_14 + B0_2 >= 0
 B[0,15,3,5]: - 15 X_5_14 + B0_3 >= 0
 B[0,17,0,0]: - 17 X_0_16 + B0_0 >= 0
 B[0,17,0,1]: - 17 X_1_16 + B0_0 >= 0
 B[0,17,1,4]: - 17 X_4_16 + B0_1 >= 0
 B[0,17,2,2]: - 17 X_2_16 + B0_2 >= 0
 B[0,17,2,3]: - 17 X_3_16 + B0_2 >= 0
 B[0,17,3,5]: - 17 X_5_16 + B0_3 >= 0
 B[0,19,0,0]: - 19 X_0_18 + B0_0 >= 0
 B[0,19,0,1]: - 19 X_1_18 + B0_0 >= 0
 B[0,19,1,4]: - 19 X_4_18 + B0_1 >= 0
 B[0,19,2,2]: - 19 X_2_18 + B0_2 >= 0
 B[0,19,2,3]: - 19 X_3_18 + B0_2 >= 0
 B[0,19,3,5]: - 19 X_5_18 + B0_3 >= 0
 B[0,23,0,0]: - 23 X_0_22 + B0_0 >= 0
 B[0,23,0,1]: - 23 X_1_22 + B0_0 >= 0
 B[0,23,1,4]: - 23 X_4_22 + B0_1 >= 0
 B[0,23,2,2]: - 23 X_2_22 + B0_2 >= 0
 B[0,23,2,3]: - 23 X_3_22 + B0_2 >= 0
 B[0,23,3,5]: - 23 X_5_22 + B0_3 >= 0
 B[0,25,0,0]: - 25 X_0_24 + B0_0 >= 0
 B[0,25,0,1]: - 25 X_1_24 + B0_0 >= 0
 B[0,25,1,4]: - 25 X_4_24 + B0_1 >= 0
 B[0,25,2,2]: - 25 X_2_24 + B0_2 >= 0
 B[0,25,2,3]: - 25 X_3_24 + B0_2 >= 0
 B[0,25,3,5]: - 25 X_5_24 + B0_3 >= 0
 B[0,29,0,0]: - 29 X_0_28 + B0_0 >= 0
 B[0,29,0,1]: - 29 X_1_28 + B0_0 >= 0
 B[0,29,1,4]: - 29 X_4_28 + B0_1 >= 0
 B[0,29,2,2]: - 29 X_2_28 + B0_2 >= 0
 B[0,29,2,3]: - 29 X_3_28 + B0_2 >= 0
 B[0,29,3,5]: - 29 X_5_28 + B0_3 >= 0
 B[0,31,0,0]: - 31 X_0_30 + B0_0 >= 0
 B[0,31,0,1]: - 31 X_1_30 + B0_0 >= 0
 B[0,31,1,4]: - 31 X_4_30 + B0_1 >= 0
 B[0,31,2,2]: - 31 X_2_30 + B0_2 >= 0
 B[0,31,2,3]: - 31 X_3_30 + B0_2 >= 0
 B[0,31,3,5]: - 31 X_5_30 + B0_3 >= 0
 global_lb[0]: - 720 X_0_6 - 180 X_1_6 - 720 X_2_6 - 240 X_3_6 - 180 X_4_6
   - 180 X_5_6 - 720 X_0_8 - 180 X_1_8 - 720 X_2_8 - 240 X_3_8 - 180 X_4_8
   - 180 X_5_8 - 720 X_0_10 - 180 X_1_10 - 720 X_2_10 - 240 X_3_10
   - 180 X_4_10 - 180 X_5_10 - 720 X_0_14 - 180 X_1_14 - 720 X_2_14
   - 240 X_3_14 - 180 X_4_14 - 180 X_5_14 - 720 X_0_16 - 180 X_1_16
   - 720 X_2_16 - 240 X_3_16 - 180 X_4_16 - 180 X_5_16 - 720 X_0_18
   - 180 X_1_18 - 720 X_2_18 - 240 X_3_18 - 180 X_4_18 - 180 X_5_18
   - 720 X_0_22 - 180 X_1_22 - 720 X_2_22 - 240 X_3_22 - 180 X_4_22
   - 180 X_5_22 - 720 X_0_24 - 180 X_1_24 - 720 X_2_24 - 240 X_3_24
   - 180 X_4_24 - 180 X_5_24 - 720 X_0_28 - 180 X_1_28 - 720 X_2_28
   - 240 X_3_28 - 180 X_4_28 - 180 X_5_28 - 720 X_0_30 - 180 X_1_30
   - 720 X_2_30 - 240 X_3_30 - 180 X_4_30 - 180 X_5_30 + theta + 6 A0_0
   + 6 A0_1 + 6 A0_2 + 6 A0_3 - 6 B0_0 - 6 B0_1 - 6 B0_2 - 6 B0_3 >= 0
Bounds
Binaries
 X_0_6 X_1_6 X_2_6 X_3_6 X_4_6 X_5_6 X_6_6 X_7_6 X_0_8 X_1_8 X_2_8 X_3_8
 X_4_8 X_5_8 X_6_8 X_7_8 X_0_10 X_1_10 X_2_10 X_3_10 X_4_10 X_5_10 X_6_10
 X_7_10 X_0_14 X_1_14 X_2_14 X_3_14 X_4_14 X_5_14 X_6_14 X_7_14 X_0_16
 X_1_16 X_2_16 X_3_16 X_4_16 X_5_16 X_6_16 X_7_16 X_0_18 X_1_18 X_2_18
 X_3_18 X_4_18 X_5_18 X_6_18 X_7_18 X_0_22 X_1_22 X_2_22 X_3_22 X_4_22
 X_5_22 X_6_22 X_7_22 X_0_24 X_1_24 X_2_24 X_3_24 X_4_24 X_5_24 X_6_24
 X_7_24 X_0_28 X_1_28 X_2_28 X_3_28 X_4_28 X_5_28 X_6_28 X_7_28 X_0_30
 X_1_30 X_2_30 X_3_30 X_4_30 X_5_30 X_6_30 X_7_30
End
